NAME : amtsp
TYPE : ATSP
DIMENSION : 5
EDGE_WEIGHT_TYPE : EXPLICIT
EDGE_WEIGHT_FORMAT : FULL_MATRIX
EDGE_WEIGHT_SECTION
0 500 203007 203185 202842 
0 0 3541 3684 3904 
0 3541 0 1792 2012 
0 3684 1792 0 219 
0 3904 2012 219 0 
